220.0
218.4
219.2
219.6
219.0
218.8
219.6
218.6
218.4
219.2
219.4
219.4
218.8
219.8
219.8
219.4
219.2
220.0
219.8
219.8
219.0
219.2
219.4
219.2
220.0
218.8
219.6
219.6
219.0
219.2
219.2
220.0
218.8
219.4
219.0
218.8
219.2
220.0
220.2
219.4
219.4
219.4
219.4
219.2
218.8
219.2
219.4
219.8
218.2
218.8
